language Essence 1.3

letting bot_end be
        [174, 177, 726, 728, 564, 496, 928, 1028, 371, 1108, 276, 1015, 1021, 145, 283, 1049, 534, 408; int(1..18)]
letting bot_start be
        [734, 538, 1069, 141, 95, 500, 1135, 416, 1237, 762, 6, 1230, 440, 1046, 414, 1072, 50, 1038; int(1..18)]
letting bots be 18
letting buffer_col be 2
letting buffer_row be 2
letting corridor_size be 1
letting n_shelves_col be 4
letting n_shelves_row be 37
letting shelf_col_size be 2
letting shelf_row_size be 1
